c This input sequence yields 18 propagations
p cnf 20 40
1 2 0
2 20 0
3 9 0
4 9 0
5 -1 0
6 19 0
7 -1 0
1 13 14 15 16 17 18 0
19 15 14 7 8 9 1 0
11 12 13 8 14 6 9 0
1 3 5 7 9 11 13 0
9 11 13 15 17 19 0
15 17 19 2 4 6 8 0
1 3 5 7 9 2 4 6 0
-7 11 -13 -17 1 2 3 0
16 17 18 19 -7 -2 -9 0
-5 11 -6 -3 1 17 18 0
12 11 -10 9 -7 -8 2 0
-8 19 2 3 0
-9 10 0
-10 0
-11 13 15 0
-12 13 0
-13 0
-14 0
-15 12 0
-16 0
-17 0
-18 19 20 0
-18 -3 -7 11 0
-13 -9 -15 19 0
-3 -18 -6 0
-1 9 -2 5 0
-8 -3 -4 17 0
3 9 18 17 0
-4 16 15 1 0
4 13 17 -11 0
19 -1 15 17 0
18 3 2 1 0
14 -3 -9 15 0
-14 -3 -2 20 0
